N = 126;
M = 143;
Edge_Start = [1, 2, 3, 3, 4, 5, 6, 7, 7, 8, 9, 9, 10, 11, 13, 14, 15, 16, 17, 19, 19, 20, 21, 22, 23, 23, 24, 25, 25, 26, 27, 27, 28, 29, 29, 30, 31, 32, 32, 33, 34, 34, 36, 38, 38, 39, 40, 40, 41, 42, 43, 44, 44, 45, 46, 46, 48, 49, 49, 50, 51, 51, 52, 53, 54, 55, 55, 57, 57, 58, 59, 59, 61, 61, 62, 63, 64, 64, 65, 66, 66, 68, 68, 69, 70, 71, 72, 72, 73, 74, 74, 76, 77, 80, 81, 82, 83, 83, 84, 85, 85, 86, 87, 87, 88, 91, 92, 93, 93, 94, 95, 96, 97, 98, 98, 100, 100, 101, 102, 102, 104, 105, 106, 106, 107, 108, 108, 109, 110, 110, 112, 113, 114, 115, 116, 118, 119, 120, 121, 122, 123, 124, 125];
Edge_End = [16, 3, 4, 18, 5, 20, 7, 8, 22, 9, 10, 24, 11, 12, 28, 15, 30, 17, 33, 20, 35, 21, 37, 23, 24, 39, 25, 26, 41, 27, 28, 43, 29, 30, 45, 31, 47, 33, 48, 34, 35, 50, 37, 39, 54, 40, 41, 56, 42, 43, 44, 45, 60, 46, 47, 62, 49, 50, 65, 51, 52, 67, 53, 69, 55, 56, 71, 58, 73, 59, 60, 75, 62, 77, 63, 79, 65, 80, 66, 67, 82, 69, 84, 70, 71, 72, 73, 88, 74, 75, 90, 77, 78, 81, 82, 83, 84, 99, 85, 86, 101, 87, 88, 103, 89, 92, 93, 94, 109, 95, 111, 97, 98, 99, 114, 101, 116, 102, 103, 118, 105, 106, 107, 122, 108, 109, 124, 110, 111, 126, 113, 114, 115, 116, 117, 119, 120, 121, 122, 123, 124, 125, 126];
L = [5, 16, 7, 5, 4, 16, 7, 11, 14, 1, 16, 1, 13, 5, 1, 3, 1, 12, 18, 4, 6, 6, 4, 11, 16, 4, 10, 7, 4, 1, 6, 9, 8, 5, 5, 15, 9, 6, 14, 2, 2, 11, 1, 12, 12, 3, 6, 2, 3, 3, 4, 15, 15, 8, 7, 8, 7, 9, 6, 15, 1, 1, 2, 4, 2, 1, 3, 12, 14, 9, 5, 19, 13, 6, 10, 10, 14, 15, 8, 10, 1, 1, 14, 6, 16, 17, 9, 19, 1, 15, 2, 8, 16, 8, 9, 3, 3, 3, 7, 12, 18, 8, 4, 15, 9, 10, 2, 5, 19, 8, 11, 8, 1, 9, 18, 11, 2, 14, 8, 9, 6, 18, 17, 6, 10, 16, 15, 13, 17, 3, 11, 15, 9, 3, 9, 14, 12, 9, 16, 12, 15, 6, 1];
T = [8, 27, 4, 7, 1, 12, 21, 11, 1, 1, 17, 1, 9, 2, 4, 1, 1, 17, 13, 9, 1, 9, 14, 9, 12, 8, 17, 1, 1, 5, 11, 5, 9, 4, 4, 14, 13, 1, 15, 1, 4, 14, 1, 13, 12, 4, 3, 3, 1, 1, 3, 20, 16, 9, 10, 3, 6, 11, 3, 17, 4, 1, 1, 1, 5, 2, 1, 11, 15, 10, 1, 19, 14, 1, 11, 4, 6, 15, 1, 11, 7, 6, 11, 3, 5, 24, 9, 20, 2, 21, 1, 13, 18, 9, 8, 1, 1, 1, 1, 4, 7, 14, 5, 8, 8, 2, 1, 12, 16, 10, 6, 2, 2, 1, 21, 1, 2, 15, 15, 2, 4, 22, 21, 7, 6, 16, 11, 24, 18, 4, 14, 11, 10, 2, 11, 13, 11, 9, 20, 11, 9, 2, 3];
Lower_Bound = [0, 97, 70, 66, 65, 133, 112, 113, 112, 129, 138, 140, 115, 126, 125, 8, 25, 77, 44, 53, 62, 111, 102, 111, 94, 95, 100, 111, 120, 124, 138, 39, 38, 39, 43, 77, 76, 102, 94, 90, 93, 94, 95, 98, 118, 127, 137, 54, 60, 53, 70, 74, 75, 90, 85, 87, 132, 125, 115, 114, 144, 130, 141, 69, 63, 64, 71, 82, 76, 79, 84, 108, 117, 119, 134, 158, 145, 163, 145, 84, 79, 71, 72, 73, 74, 78, 92, 97, 105, 120, 217, 215, 214, 214, 204, 78, 76, 74, 73, 82, 81, 96, 100, 184, 180, 158, 179, 182, 198, 180, 198, 120, 106, 95, 86, 84, 95, 98, 111, 122, 131, 151, 162, 171, 173, 176];
Upper_Bound = [1, 98, 71, 67, 66, 134, 113, 114, 113, 130, 139, 141, 116, 127, 126, 9, 26, 78, 45, 54, 63, 112, 103, 112, 95, 96, 101, 112, 121, 125, 139, 40, 39, 40, 44, 78, 77, 103, 95, 91, 94, 95, 96, 99, 119, 128, 138, 55, 61, 54, 71, 75, 76, 91, 86, 88, 133, 126, 116, 115, 145, 131, 142, 70, 64, 65, 72, 83, 77, 80, 85, 109, 118, 120, 135, 159, 146, 164, 146, 85, 80, 72, 73, 74, 75, 79, 93, 98, 106, 121, 218, 216, 215, 215, 205, 79, 77, 75, 74, 83, 82, 97, 101, 185, 181, 159, 180, 183, 199, 181, 199, 121, 107, 96, 87, 85, 96, 99, 112, 123, 132, 152, 163, 172, 174, 177];
Start = 1;
End = 126;
Time = 178;
